; benchmark generated from python API
(set-info :status unknown)
(declare-datatypes ((RealState 0)) (((RMk1 (rval1 Real)) (RMk2 (rval2 Real)))))
 (declare-fun yuscore2dollarskuscore74 () Real)
(declare-fun t35uscore0dollarskuscore1 () Real)
(declare-fun xuscore2dollarskuscore64 () Real)
(declare-fun stuscore2dollarskuscore74 () Real)
(assert
 (let (($x167 (exists ((ts35uscore1_st RealState) (val!42 Real) )(let (($x64 (<= (+ t35uscore0dollarskuscore1 yuscore2dollarskuscore74) 12.0)))
 (let (($x194 (<= yuscore2dollarskuscore74 (+ 10.0 xuscore2dollarskuscore64))))
 (let (($x203 (>= yuscore2dollarskuscore74 (- 5.0 (* 2.0 xuscore2dollarskuscore64)))))
 (let (($x234 (<= yuscore2dollarskuscore74 12.0)))
 (let (($x144 (>= yuscore2dollarskuscore74 1.0)))
 (let (($x240 (= stuscore2dollarskuscore74 1.0)))
 (let (($x192 (< xuscore2dollarskuscore64 2.0)))
 (let (($x45 (>= t35uscore0dollarskuscore1 0.0)))
 (let (($x93 (<= (+ (rval2 ts35uscore1_st) xuscore2dollarskuscore64) 2.0)))
 (let (($x98 (and (<= 0.0 (rval2 ts35uscore1_st)) (<= (rval2 ts35uscore1_st) t35uscore0dollarskuscore1))))
 (let (($x182 (and (and (and (and (and (=> $x98 $x93) $x45) $x192) $x240) $x144) $x234)))
 (let (($x94 (not (= ts35uscore1_st (RMk1 val!42)))))
 (and $x94 (=> (and (and $x182 $x203) $x194) $x64)))))))))))))))
 ))
 (not $x167)))
(check-sat)
